benchmark_str_length/p2_10_9-2.dzn
Alphabet = {A,C,G,T};
ns = 10;
nc = 8;
sl = 8;
neighbours = [| I(G),I(A),Null,Null,Null,Null,Null,Null | I(C),I(G),I(A),I(C),I(G),Null,Null,Null | I(A),I(T),I(T),I(G),I(T),Null,Null,Null | I(C),I(G),I(A),I(C),I(A),I(T),Null,Null | I(A),I(T),I(G),Null,Null,Null,Null,Null | I(A),Null,Null,Null,Null,Null,Null,Null | I(T),Null,Null,Null,Null,Null,Null,Null | I(A),I(T),I(C),I(G),I(C),I(A),I(A),I(T) | I(C),I(A),I(G),I(A),I(A),Null,Null,Null | I(G),I(A),I(G),I(G),I(A),Null,Null,Null |];
