benchmark_str_length/p2_10_9-2.txt
{
	"num_strings": 10,
	"alphabet": "ACGT",
	"strings": [
		"GA",
		"CGACG",
		"ATTGT",
		"CGACAT",
		"ATG",
		"A",
		"T",
		"ATCGCAAT",
		"CAGAA",
		"GAGGA"
	],
	"str_length":[2,5,5,6,3,1,1,8,5,5]
}